c ren 1 -> 1
c ren 2 -> 2
c ren 3 -> 3
c ren 4 -> 4
c ren 5 -> 5
c ren 6 -> 6
c ren 7 -> 7
c ren 8 -> 8
c ren 9 -> 9
c ren 10 -> 10
c ren 11 -> 11
c ren 12 -> 12
c ren 13 -> 13
c ren 14 -> 14
c ren 15 -> 15
c ren 17 -> 16
c ren 18 -> 17
c ren 19 -> 18
c ren 20 -> 19
c ren 21 -> 20
c ren 22 -> 21
c ren 23 -> 22
c ren 24 -> 23
c ren 25 -> 24
c ren 26 -> 25
c ren 27 -> 26
c ren 28 -> 27
c ren 29 -> 28
c ren 30 -> 29
c ren 31 -> 30
c ren 35 -> 31
c ren 37 -> 32
c ren 43 -> 33
c ren 49 -> 34
c ren 52 -> 35
c ren 55 -> 36
c ren 57 -> 37
c ren 71 -> 38
p cnf 38 143
a 1 2 3 4 5 6 7 8 9 10 11 12 13 14 15 16 17 18 19 20 21 22 23 24 0
d 25 3 4 0
d 26 18 19 0
d 27 16 17 0
d 28 21 24 0
d 29 11 20 0
d 30 22 23 0
e 31 32 33 34 35 36 37 38 0
-1 -16 -31 0
1 2 -16 31 0
-2 20 35 0
1 2 16 -31 0
-1 20 35 0
-1 -20 -35 0
1 2 -20 35 0
-17 -25 32 0
17 25 32 0
-17 25 -32 0
17 -25 -32 0
32 38 0
11 -12 -21 -23 -24 -26 -27 -30 -31 -32 -33 -34 -35 -37 -38 0
-2 5 -6 -27 38 0
-5 -18 -33 0
5 6 -18 33 0
-6 9 -10 -26 -27 38 0
5 6 18 -33 0
-5 9 -10 -26 -27 38 0
-5 -28 38 0
-4 5 7 -8 -27 38 0
33 38 0
11 -12 -21 -23 24 26 -30 -31 -32 -33 -34 -35 -37 -38 0
-6 11 12 13 -14 -26 -27 36 38 0
-7 -19 -34 0
7 8 -19 34 0
-6 11 12 13 15 -26 -27 36 38 0
7 8 19 -34 0
-8 19 34 0
-8 -19 -34 0
34 38 0
11 -12 -21 -23 24 27 -30 -31 -32 -33 -34 -35 -37 -38 0
-2 9 -10 -26 -27 38 0
1 2 20 -35 0
-1 5 -6 -27 38 0
-1 11 12 13 15 -26 -27 36 38 0
1 2 3 4 5 -6 27 38 0
35 38 0
11 -12 21 -23 -24 -26 -27 30 -31 -32 -33 -34 -35 -37 -38 0
-2 11 12 13 -14 -26 -27 36 38 0
9 -36 0
10 -36 0
-9 -10 36 0
-22 36 37 0
22 -36 37 0
-22 -36 -37 0
22 36 -37 0
37 38 0
11 -12 21 -23 24 26 30 -31 -32 -33 -34 -35 -37 -38 0
-2 5 7 -8 -27 38 0
12 -21 23 -24 -26 -27 -30 -31 -32 -33 -34 -35 -37 -38 0
11 -12 21 -23 24 27 30 -31 -32 -33 -34 -35 -37 -38 0
-2 -20 -35 0
-11 -21 23 24 27 -30 -31 -32 -33 -34 -35 -37 -38 0
-11 -21 23 -24 -26 -27 -30 -31 -32 -33 -34 -35 -37 -38 0
-11 21 23 -24 -26 -27 30 -31 -32 -33 -34 -35 -37 -38 0
-11 -21 23 24 26 -30 -31 -32 -33 -34 -35 -37 -38 0
-11 21 23 24 26 30 -31 -32 -33 -34 -35 -37 -38 0
31 38 0
12 -21 23 24 27 -30 -31 -32 -33 -34 -35 -37 -38 0
12 21 23 -24 -26 -27 30 -31 -32 -33 -34 -35 -37 -38 0
12 -21 23 24 26 -30 -31 -32 -33 -34 -35 -37 -38 0
12 21 23 24 26 30 -31 -32 -33 -34 -35 -37 -38 0
-6 -28 38 0
-3 11 12 13 15 -26 -27 36 38 0
12 21 23 24 27 30 -31 -32 -33 -34 -35 -37 -38 0
-2 -28 38 0
-1 16 31 0
-11 21 23 24 27 30 -31 -32 -33 -34 -35 -37 -38 0
-5 18 33 0
-2 11 12 13 15 -26 -27 36 38 0
-2 16 31 0
-10 11 12 13 15 -26 -27 36 38 0
1 2 3 4 5 7 9 11 12 13 15 27 38 0
-1 11 12 13 -14 -26 -27 36 38 0
1 2 3 4 5 7 9 11 12 13 -14 27 38 0
-3 5 -6 -27 38 0
-1 5 7 -8 -27 38 0
1 2 -3 -5 -25 38 0
1 2 -4 -5 -25 38 0
1 2 3 4 -5 25 38 0
1 2 -3 6 8 -9 -25 38 0
1 2 3 4 6 -7 25 38 0
-4 5 6 7 8 -25 -29 36 38 0
1 2 -4 6 8 11 12 -13 -25 36 38 0
1 2 -3 6 -7 -25 38 0
-7 19 34 0
1 2 -4 6 8 -9 -25 38 0
-4 5 -6 -27 38 0
-3 9 -10 -26 -27 38 0
-4 9 -10 -26 -27 38 0
1 2 3 4 5 6 7 8 9 11 12 13 -14 26 38 0
-1 -28 38 0
1 2 3 4 5 7 9 -10 27 38 0
-1 9 -10 -26 -27 38 0
-3 11 12 13 -14 -26 -27 36 38 0
-3 5 6 7 8 -25 -29 36 38 0
1 2 3 4 6 8 10 -11 25 38 0
1 2 3 4 6 8 10 12 14 -15 25 38 0
1 2 -3 6 8 11 12 -13 -25 36 38 0
1 2 5 6 7 8 -9 11 12 14 -15 -25 36 38 0
1 2 3 4 6 8 10 12 -13 25 38 0
5 6 7 8 -10 -25 -29 36 38 0
-7 -28 38 0
-6 18 33 0
-2 -16 -31 0
-7 9 -10 -26 -27 38 0
-9 11 12 13 15 -26 -27 36 38 0
1 2 -3 6 8 11 12 14 -15 -25 36 38 0
1 2 3 4 6 8 -9 25 38 0
-4 -28 38 0
-8 9 -10 -26 -27 38 0
-7 11 12 13 -14 -26 -27 36 38 0
-8 11 12 13 -14 -26 -27 36 38 0
1 2 3 4 5 6 7 8 9 11 12 13 15 26 38 0
-5 11 12 13 15 -26 -27 36 38 0
1 2 3 4 5 6 7 8 9 -10 26 38 0
-8 -28 38 0
-5 11 12 13 -14 -26 -27 36 38 0
1 2 5 6 7 8 -10 11 12 -13 -25 36 38 0
1 2 -4 6 -7 -25 38 0
1 2 5 6 7 8 -9 11 12 -13 -25 36 38 0
5 6 7 8 -9 -25 -29 36 38 0
-1 5 6 7 8 -25 -29 36 38 0
-2 5 6 7 8 -25 -29 36 38 0
1 2 5 6 7 8 -10 11 12 14 -15 -25 36 38 0
-10 11 12 13 -14 -26 -27 36 38 0
1 2 3 4 5 7 -8 27 38 0
-6 -18 -33 0
-11 -28 38 0
-9 -28 38 0
-7 11 12 13 15 -26 -27 36 38 0
-3 -28 38 0
1 2 -4 6 8 11 12 14 -15 -25 36 38 0
-8 11 12 13 15 -26 -27 36 38 0
-4 11 12 13 -14 -26 -27 36 38 0
-3 5 7 -8 -27 38 0
-4 11 12 13 15 -26 -27 36 38 0
1 2 3 4 5 6 7 8 9 10 11 -12 28 38 0
-10 -28 38 0
1 2 3 4 5 6 7 8 9 10 -11 29 38 0
-9 11 12 13 -14 -26 -27 36 38 0
12 -28 38 0
